17	4
15	14	27	25	
0	0	0	0	0	3	2	3	4	
7	4	0	6	0	3	5	9	12	
1	0	7	8	1	3	8	16	17	
10	0	2	1	0	3	6	7	10	
5	9	0	10	0	3	6	7	13	
175	0	10	0	5	3	8	14	15	
125	0	0	7	9	3	17	17	17	
150	0	0	6	0	3	17	17	17	
250	2	0	0	2	3	11	17	17	
125	0	0	0	9	3	11	12	13	
100	0	3	0	0	3	14	15	17	
25	0	4	6	0	3	14	17	17	
10	3	0	7	0	3	16	17	17	
7	0	0	8	0	3	16	17	17	
8	0	3	2	0	3	17	17	17	
10	3	3	0	0	3	17	17	17	
0	0	0	0	0	0	
